55
44
61
26
52
21
28
46
0
68
36
24
41
23
31
29
37
96
79
48
39
46
0
47
0
0
52
56
36
0
240
0
35
62
51
34
80
59
63
64
0
51
70
44
105
65
52
48
25
26
0
74
141
77
36
37
152
45
67
0
24
75
55
48
131
0
32
0
42
49
71
83
61
48
25
117
0
0
104
69
172
251
137
33
56
199
50
58
187
71
52
0
33
68
27
62
23
23
52
82
